6
Coordinates from ORCA-job opt E -78.504182203527
  C          -2.63044559481467      0.66147296194597     -0.00004564840874
  C          -1.30050824081596      0.65447526300542      0.00004478892521
  H          -3.20897843407417     -0.08691599489203      0.55004911805442
  H          -3.20097695167279      1.41606633229283     -0.55002246699062
  H          -0.72997694927464     -0.10011917523915      0.55002011359008
  H          -0.72197531234776      1.40286339188697     -0.55005162737037
