8
Coordinates from ORCA-job opt E -79.747926525954
  C          -2.83293771599538      0.66263226599086      0.00001361254578
  C          -1.30965168054748      0.65444090937615     -0.00001516946210
  H          -3.23295722471242      1.49106321205609     -0.60468667697969
  H          -3.24242367650602     -0.27216404680257     -0.41297707112318
  H          -3.23708501105499      0.77523808005768      1.01790683274578
  H          -0.90550492814974      0.54184709959778     -1.01790991527326
  H          -0.90016603423228      1.58923264134324      0.41298556127465
  H          -0.90963105150168     -0.17399701921924      0.60467519687204
