6
Coordinates from ORCA-job opt E -153.313587880923
  C          -2.80373213937544      0.67518884134012     -0.07411274200324
  C          -1.66089162507563      0.73773929172304     -0.47016956981212
  C          -0.35329956669353      0.80931314561262     -0.92330820897411
  C           0.78954084353664      0.87186424955862     -1.31936521940896
  H          -3.81812385655278      0.61981901033557      0.27754857997970
  H           1.80393250596074      0.92723452343003     -1.67102682898126
