10
Coordinates from ORCA-job opt E -155.818189870922
  C          -2.95782103907178      0.66711932650800     -0.02060917618683
  C          -1.57761543738535      0.74257760638510     -0.49886178301534
  H          -2.99092200031217      0.47951931919119      1.06301449610754
  C           0.94362970863203      0.87993378887294     -1.37286866183327
  H          -3.50440578574129     -0.14633464718646     -0.52067914538414
  C          -0.43657597011111      0.80447540138657     -0.89461612772164
  H          -3.49634642587079      1.60630212442299     -0.21655754497183
  H           0.97673046072239      1.06753922428191     -2.45649155366825
  H           1.49021716708070      1.69338381509862     -0.87279512397254
  H           1.48215292515739     -0.05925085546087     -1.17692536135370
