10
Coordinates from ORCA-job opt E -155.829179736738
  C          -2.70196454864438      0.65501491054539      0.03665338544803
  C          -1.36927282577539      0.66654794629257     -0.06902000415636
  H          -3.34376468684649      0.81005487898016     -0.83660621662820
  C           0.68777295924185      0.89203898654879     -1.43013087113122
  H          -3.19828133302726      0.49254123607344      0.99633220848231
  C          -0.64491886394231      0.88050283037832     -1.32445972151436
  H           1.18409121689092      1.05451382511238     -2.38980839651871
  H           1.32957161109043      0.73700083453302     -0.55686958200179
  H          -0.75595117049129      0.50814595429195      0.82647475041594
  H          -1.25823875539609      1.03890370054399     -2.21995553439563
