12
Coordinates from ORCA-job opt E -157.067615308102
  C          -2.83783598798885      0.60817321469609     -0.01151865224416
  C          -1.36384225615187      0.45037623981253     -0.23431308244599
  H          -3.36549532012553     -0.35086312541037     -0.14109091133556
  H          -3.05211141825335      0.94987573837681      1.01429738571707
  H          -3.27620784596257      1.33512307468313     -0.71119652487701
  H           1.03795240696149      0.59735583070194     -2.40782829309239
  C          -0.65035226250540      1.09665882637123     -1.15917483091298
  H           1.35130445835452      1.89789218174703     -1.25220373586455
  H           1.26199362764771      0.21181730548687     -0.68238598106513
  H          -0.84334455451322     -0.25810168787050      0.42510865099347
  C           0.82364455450242      0.93888033604182     -1.38196088095593
  H          -1.17085307836535      1.80513018936342     -1.81860112221683
