12
Coordinates from ORCA-job opt E -232.014655462669
  C          -2.36480947586376      3.14598197959205     -0.00000077378880
  C          -3.56450754928861      2.43470359876631     -0.00000356756813
  H          -4.48868869889548      0.48259588495921     -0.00000467918062
  C          -1.13290808409730      1.06803700928950     -0.00000106683934
  H          -0.18004251304399      0.53235506161538     -0.00000063048597
  C          -3.54841991451465      1.04011604080854     -0.00000334466547
  H          -2.31995378099532     -0.73627875833732     -0.00000191755586
  H          -2.37746242157509      4.23901872699453      0.00000006547359
  C          -2.33260641183555      0.35675853705193     -0.00000181600893
  C          -1.14899589825761      2.46262470358412      0.00000031836669
  H          -4.51737316828258      2.97038502519567     -0.00000453075540
  H          -0.20872677175005      3.02014440098007      0.00000135810824
