24
Coordinates from ORCA-job opt E -679.713052701615
  C           0.26616613498332      0.61357194981101     -0.51157440043797
  C           0.74666374056130      2.55897194338678     -2.05100276307741
  C           1.05764004223594     -0.38947984189923     -0.00033300738232
  C           1.37016979780414     -2.41932715246205      1.37304338464905
  C           2.32426993302067      0.79999166091981     -1.18958094899398
  C          -0.79869570617721     -1.32519478758755      1.16862314789434
  C          -1.13863709267097      0.74130592805597     -0.22556627520260
  C          -2.98099476904238     -0.30245920001542      1.01678157094718
  N           0.54355389206341     -1.35461214683981      0.83204642768769
  N           1.11118406001844      1.38305831454915     -1.28644297770570
  N           2.33617914666399     -0.27522151992152     -0.42033474569629
  N          -1.57620924871709     -0.28572834302510      0.63069698741373
  O          -1.28822069241712     -2.15918849906501      1.89801151042731
  O          -1.88016415513917      1.60761400228387     -0.64784095710649
  H           0.26283331475775      3.29689090658061     -1.39911078236461
  H           0.04368726188596      2.29367788234267     -2.85166495901330
  H           1.35595560689947     -2.39401522826755      2.47117409550335
  H           0.99511873171417     -3.39890362087180      1.04594503559489
  H           1.65615692743815      2.99004365122925     -2.48778744550040
  H           2.39117999126408     -2.26720328208701      1.00574675192498
  H           3.19579543779512      1.20354623458630     -1.70677094573728
  H          -3.07613863500243     -0.23642011125277      2.10873126744286
  H          -3.46341913997236      0.55631193467751      0.53982173312784
  H          -3.45407257996718     -1.23723067512809      0.68738729560514
