20

C        0.53536528     -1.37268696     -0.07640959
C       -0.91605355     -1.10945333     -0.45698138
C       -1.43362987      0.18708139      0.16455332
O       -2.74395068      0.45691618     -0.31967548
C       -0.53536553      1.37268671     -0.18395336
C        0.91605374      1.10945333      0.19661724
C        1.43363004     -0.18708192     -0.42491648
O        2.74395059     -0.45691681      0.05931282
H        0.89973204     -2.27478525     -0.58256747
H        0.60571650     -1.58743318      0.99800135
H       -1.01298945     -1.06055523     -1.54940341
H       -1.54563390     -1.94997747     -0.14119416
H       -1.49287980      0.08198896      1.25446869
H       -3.30996980     -0.29318828     -0.06811762
H       -0.89973166      2.27478446      0.32220539
H       -0.60571733      1.58743406     -1.25836368
H        1.54563345      1.94997766     -0.11917146
H        1.01299074      1.06055678      1.28903957
H        1.49288022     -0.08199041     -1.51483198
H        3.30996896      0.29318932     -0.19224033
