TITL ROY polymorph ON
CELL 0.71073 3.9453 18.685 16.3948 90 93.83 90
ZERR 4 0.0007 0.001 0.0004 0 0.005 0
LATT 1
SYMM -x,1/2+y,1/2-z
SFAC C H N O S
UNIT 48 36 12 8 4
FVAR 1.00
S1      5  0.353200  0.598150  0.928980  1.000000 0.05000
O1      4  0.095200  0.687000  0.632100  1.000000 0.05000
O2      4  0.009800  0.616500  0.530500  1.000000 0.05000
N1      3  0.397300  0.642800  0.769200  1.000000 0.05000
N2      3  0.132300  0.628300  0.599600  1.000000 0.05000
N3      3  0.905300  0.802900  0.789500  1.000000 0.05000
C1      1  0.780800  0.764500  0.832600  1.000000 0.05000
C2      1  0.486000  0.637700  1.092400  1.000000 0.05000
C3      1  0.443000  0.580600  0.725700  1.000000 0.05000
C4      1  0.318500  0.572600  0.643700  1.000000 0.05000
C5      1  0.361900  0.508900  0.601600  1.000000 0.05000
C6      1  0.535200  0.453000  0.638000  1.000000 0.05000
C7      1  0.668200  0.460500  0.718300  1.000000 0.05000
C8      1  0.624700  0.522700  0.760700  1.000000 0.05000
C9      1  0.481200  0.653000  0.851900  1.000000 0.05000
C10     1  0.639800  0.712900  0.884400  1.000000 0.05000
C11     1  0.654200  0.714300  0.971600  1.000000 0.05000
C12     1  0.512600  0.656000  1.004000  1.000000 0.05000
H1      2  0.305000  0.676000  0.739000  1.000000 0.06000
H2      2  0.619920  0.669050  1.127340  1.000000 0.06000
H3      2  0.562770  0.589390  1.103470  1.000000 0.06000
H4      2  0.254510  0.640580  1.107160  1.000000 0.06000
H5      2  0.268120  0.504580  0.546250  1.000000 0.06000
H6      2  0.566610  0.409240  0.608420  1.000000 0.06000
H7      2  0.791630  0.420880  0.744330  1.000000 0.06000
H8      2  0.719430  0.526470  0.816370  1.000000 0.06000
H9      2  0.753360  0.752670  1.003830  1.000000 0.06000
END
